(declare-fun _for_it_85 () Int)
(declare-fun kfdia () Int)
(declare-fun kidia () Int)
(declare-fun klev () Int)
(declare-fun ncldtop () Int)

(assert (and
  (forall ((_for_it_86_0 Int) (_for_it_88_1 Int))
    (or
      (not (= _for_it_86_0 _for_it_88_1))
      (not (<= _for_it_86_0 (+ kfdia (- 1))))
      (not (<= (+ kidia (- 1)) _for_it_86_0))
      (not (<= _for_it_88_1 (+ kfdia (- 1))))
      (not (<= (+ kidia (- 1)) _for_it_88_1))
    )
  )
  (forall ((_for_it_89_0 Int) (_for_it_89_1 Int) (_for_it_90_0 Int) (_for_it_90_1 Int))
    (or
      (not (<= _for_it_89_1 (+ kfdia (- 1))))
      (not (<= (+ kidia (- 1)) _for_it_89_1))
      (not (<= 0 _for_it_90_0))
      (not (<= _for_it_90_0 4))
      (not (<= 0 _for_it_90_1))
      (not (<= _for_it_90_1 4))
      (not (<= _for_it_89_0 (+ kfdia (- 1))))
      (not (<= (+ kidia (- 1)) _for_it_89_0))
    )
  )
  (forall ((_for_it_88_1 Int) (_for_it_89_0 Int))
    (or
      (not (= _for_it_89_0 _for_it_88_1))
      (not (<= _for_it_88_1 (+ kfdia (- 1))))
      (not (<= (+ kidia (- 1)) _for_it_88_1))
      (not (<= _for_it_89_0 (+ kfdia (- 1))))
      (not (<= (+ kidia (- 1)) _for_it_89_0))
    )
  )
  (forall ((_for_it_88_1 Int) (_for_it_89_0 Int))
    (or
      (not (<= _for_it_88_1 (+ kfdia (- 1))))
      (not (<= (+ kidia (- 1)) _for_it_88_1))
      (not (<= _for_it_89_0 (+ kfdia (- 1))))
      (not (<= (+ kidia (- 1)) _for_it_89_0))
    )
  )
  (forall ((_for_it_86_1 Int) (_for_it_89_0 Int))
    (or
      (not (<= (+ kidia (- 1)) _for_it_86_1))
      (not (<= _for_it_86_1 (+ kfdia (- 1))))
      (not (<= (+ kidia (- 1)) _for_it_89_0))
      (not (<= _for_it_89_0 (+ kfdia (- 1))))
    )
  )
  (forall ((_for_it_88_0 Int) (_for_it_89_1 Int))
    (or
      (not (<= _for_it_89_1 (+ kfdia (- 1))))
      (not (<= (+ kidia (- 1)) _for_it_89_1))
      (not (<= _for_it_88_0 (+ kfdia (- 1))))
      (not (<= (+ kidia (- 1)) _for_it_88_0))
      (not (= _for_it_88_0 _for_it_89_1))
    )
  )
  (forall ((_for_it_88_0 Int) (_for_it_88_1 Int))
    (or
      (not (<= _for_it_88_0 (+ kfdia (- 1))))
      (not (<= (+ kidia (- 1)) _for_it_88_0))
      (not (= _for_it_88_0 _for_it_88_1))
      (not (<= _for_it_88_1 (+ kfdia (- 1))))
      (not (<= (+ kidia (- 1)) _for_it_88_1))
    )
  )
  (forall ((_for_it_88_0 Int) (_for_it_89_1 Int))
    (or
      (not (<= _for_it_89_1 (+ kfdia (- 1))))
      (not (<= _for_it_88_0 (+ kfdia (- 1))))
      (not (<= (+ kidia (- 1)) _for_it_88_0))
      (not (<= (+ kidia (- 1)) _for_it_89_1))
    )
  )
  (forall ((_for_it_88_0 Int) (_for_it_88_1 Int))
    (or
      (not (<= _for_it_88_1 (+ kfdia (- 1))))
      (not (<= _for_it_88_0 (+ kfdia (- 1))))
      (not (<= (+ kidia (- 1)) _for_it_88_0))
      (not (<= (+ kidia (- 1)) _for_it_88_1))
    )
  )
  (forall ((_for_it_86_1 Int) (_for_it_88_0 Int))
    (or
      (not (<= _for_it_88_0 (+ kfdia (- 1))))
      (not (<= _for_it_86_1 (+ kfdia (- 1))))
      (not (<= (+ kidia (- 1)) _for_it_88_0))
      (not (<= (+ kidia (- 1)) _for_it_86_1))
    )
  )
  (forall ((_for_it_86_0 Int) (_for_it_86_1 Int) (tmp_parfor_0_1 Int))
    (or
      (not (= _for_it_86_0 _for_it_86_1))
      (not (<= _for_it_86_1 (+ kfdia (- 1))))
      (not (<= (+ kidia (- 1)) _for_it_86_1))
      (not (<= _for_it_86_0 (+ kfdia (- 1))))
      (not (<= (+ kidia (- 1)) _for_it_86_0))
      (not (<= 0 tmp_parfor_0_1))
      (not (<= tmp_parfor_0_1 4))
    )
  )
  (forall ((_for_it_86_0 Int) (_for_it_86_1 Int) (tmp_parfor_0_0 Int) (tmp_parfor_0_1 Int))
    (or
      (not (<= tmp_parfor_0_0 4))
      (not (= _for_it_86_0 _for_it_86_1))
      (not (<= _for_it_86_1 (+ kfdia (- 1))))
      (not (<= (+ kidia (- 1)) _for_it_86_1))
      (not (<= _for_it_86_0 (+ kfdia (- 1))))
      (not (<= (+ kidia (- 1)) _for_it_86_0))
      (not (<= 0 tmp_parfor_0_1))
      (not (<= tmp_parfor_0_1 4))
      (not (<= 0 tmp_parfor_0_0))
    )
  )
  (forall ((_for_it_86_0 Int) (_for_it_86_1 Int) (_for_it_87_0 Int) (_for_it_87_1 Int))
    (or
      (not (<= 0 _for_it_87_1))
      (not (<= _for_it_87_1 4))
      (not (= _for_it_86_0 _for_it_86_1))
      (not (= _for_it_87_0 _for_it_87_1))
      (not (<= _for_it_86_1 (+ kfdia (- 1))))
      (not (<= (+ kidia (- 1)) _for_it_86_1))
      (not (<= _for_it_86_0 (+ kfdia (- 1))))
      (not (<= (+ kidia (- 1)) _for_it_86_0))
      (not (<= 0 _for_it_87_0))
      (not (<= _for_it_87_0 4))
    )
  )
  (forall ((_for_it_86_0 Int) (_for_it_89_1 Int))
    (or
      (not (<= _for_it_89_1 (+ kfdia (- 1))))
      (not (<= (+ kidia (- 1)) _for_it_86_0))
      (not (<= (+ kidia (- 1)) _for_it_89_1))
      (not (<= _for_it_86_0 (+ kfdia (- 1))))
    )
  )
  (forall ((_for_it_86_1 Int) (_for_it_88_0 Int))
    (or
      (not (<= _for_it_86_1 (+ kfdia (- 1))))
      (not (<= (+ kidia (- 1)) _for_it_86_1))
      (not (<= _for_it_88_0 (+ kfdia (- 1))))
      (not (<= (+ kidia (- 1)) _for_it_88_0))
      (not (= _for_it_88_0 _for_it_86_1))
    )
  )
  (forall ((_for_it_86_0 Int) (_for_it_86_1 Int))
    (or
      (not (<= _for_it_86_0 (+ kfdia (- 1))))
      (not (<= (+ kidia (- 1)) _for_it_86_0))
      (not (<= _for_it_86_1 (+ kfdia (- 1))))
      (not (<= (+ kidia (- 1)) _for_it_86_1))
    )
  )
  (forall ((_for_it_86_0 Int) (_for_it_88_1 Int))
    (or
      (not (<= _for_it_86_0 (+ kfdia (- 1))))
      (not (<= (+ kidia (- 1)) _for_it_86_0))
      (not (<= (+ kidia (- 1)) _for_it_88_1))
      (not (<= _for_it_88_1 (+ kfdia (- 1))))
    )
  )
  (and
    (<= (+ _for_it_85 1) 4)
    (<= kidia (+ kfdia (- 1)))
    (<= ncldtop (+ klev (- 1)))
    (<= 0 _for_it_85)
  )
  (forall ((_for_it_89_0 Int) (_for_it_89_1 Int))
    (or
      (not (<= _for_it_89_1 (+ kfdia (- 1))))
      (not (<= (+ kidia (- 1)) _for_it_89_1))
      (not (<= _for_it_89_0 (+ kfdia (- 1))))
      (not (<= (+ kidia (- 1)) _for_it_89_0))
    )
  )
  (forall ((_for_it_86_0 Int) (_for_it_86_1 Int))
    (or
      (not (= _for_it_86_0 _for_it_86_1))
      (not (<= _for_it_86_1 (+ kfdia (- 1))))
      (not (<= (+ kidia (- 1)) _for_it_86_1))
      (not (<= _for_it_86_0 (+ kfdia (- 1))))
      (not (<= (+ kidia (- 1)) _for_it_86_0))
    )
  )
  (forall ((_for_it_86_0 Int) (_for_it_86_1 Int) (tmp_parfor_0_0 Int))
    (or
      (not (<= tmp_parfor_0_0 4))
      (not (= _for_it_86_0 _for_it_86_1))
      (not (<= _for_it_86_1 (+ kfdia (- 1))))
      (not (<= (+ kidia (- 1)) _for_it_86_1))
      (not (<= _for_it_86_0 (+ kfdia (- 1))))
      (not (<= (+ kidia (- 1)) _for_it_86_0))
      (not (<= 0 tmp_parfor_0_0))
    )
  )
))

(check-sat)